152
100
20
8
60
8
14
12
3
48
14
27
41
69
14
47
46
15
6
37
47
8
68
23
10
36
53
69
57
16
15
11
34
33
13
9
8
49
26
71
7
22
7
60
32
40
39
2
10
2
6
13
2
11
49
23
6
45
61
57
23
37
28
31
7
6
24
70
44
41
25
69
15
14
53
31
2
67
10
1
41
26
28
41
8
16
4
13
68
16
8
39
29
32
6
59
37
42
16
42
45
3
39
22
45
38
41
6
42
38
41
57
16
47
24
62
61
49
15
2
28
7
25
32
4
25
69
26
24
33
16
49
4
64
24
57
1
31
6
34
7
23
39
19
9
60
25
55
67
44
21
6
35
30
